51
120
84	1
82	3
81	1
80	2
79	1
78	1
77	2
76	2
75	3
73	3
72	1
71	2
69	2
68	1
67	3
66	3
65	2
62	1
61	4
58	2
57	2
55	1
54	1
53	1
52	5
51	1
49	2
48	4
47	3
46	5
45	2
44	3
43	3
42	3
41	1
40	2
39	2
38	1
36	1
35	1
34	2
33	1
32	1
31	2
30	1
29	1
28	1
27	1
26	2
25	1
24	3
